13740
1 0 1 0 0 1 0 0 0 0 1 1 0 0 1 0 1 1 1 0 1 1 1 0 1 0 0 0 0 0 
20 11 20 2 20 5 2 24 14 17 22 16 20 20 17 14 14 17 5 11 2 0 5 17 5 20 2 24 5 24 5 11 20 11 20 20 24 24 0 14 0 14 24 10 24 14 0 20 11 14 5 14 14 5 20 20 17 11 0 14 0 5 20 11 11 11 22 0 5 22 20 20 11 17 24 20 22 20 14 24 20 0 20 17 17 17 17 0 20 5 2 24 0 11 0 5 2 2 21 16 16 0 14 11 2 5 0 11 14 14 14 14 2 11 11 21 24 24 24 24 5 16 11 20 16 0 5 24 0 21 0 11 24 5 20 14 0 5 20 0 0 20 20 14 20 11 11 5 0 5 
